
(set-logic ALL) 

(declare-datatype MyList ((Nil) (Cons (head Real) (tail MyList)) )) 
(declare-fun l0 () MyList) 
(declare-fun l1 () MyList) 
(declare-fun l2 () MyList) 
(declare-fun l3 () MyList) 
(declare-fun i0 () Real) 
(declare-fun i1 () Real) 
(assert (is-Cons l1) )
(assert (not (is-Nil Nil)) )
(assert (is-Nil l3) )
(assert (= l2 l1) )
(assert (is-Cons Nil) )
(assert (is-Nil Nil) )
(assert (or (= l0 Nil) (= l1 Nil) (is-Cons Nil)) )
(assert (or (= l3 Nil) (is-Nil Nil) (= l0 Nil)) )
(check-sat)
